50, 125059
5002, 28
5003, 42
5000, 24
5004, 9
5003, 17
5001, 25
5002, 14
5003, 21
5004, 19
5002, 26
5004, 33
5003, 30
5000, 48
5002, 9
5000, 48
5001, 27
5003, 26
5001, 39
5000, 30
5003, 11
5003, 14
5004, 10
5004, 24
5004, 48
5003, 24
5003, 9
5001, 39
5000, 39
5004, 41
5000, 24
5004, 28
5001, 31
5004, 18
5001, 2
5000, 39
5004, 5
5002, 21
5002, 5
5002, 46
5003, 37
5000, 30
5004, 14
5004, 30
5004, 36
5004, 7
5004, 23
5002, 18
5003, 44
5003, 48
5001, 12
